p wcnf 185 370 371 
1 -83 39 0 
1 1 36 0 
1 -180 96 0 
1 7 -73 0 
1 -107 -185 0 
1 11 -86 0 
1 161 27 0 
1 -162 -51 0 
1 -89 46 0 
1 -57 -39 0 
1 -104 77 0 
1 -173 -82 0 
1 -5 -73 0 
1 -71 73 0 
1 8 -77 0 
1 -81 -120 0 
1 -155 184 0 
1 -78 -180 0 
1 10 152 0 
1 99 -98 0 
1 -97 84 0 
1 47 -51 0 
1 75 -56 0 
1 51 136 0 
1 -79 -18 0 
1 158 90 0 
1 60 106 0 
1 -19 -125 0 
1 161 91 0 
1 -175 118 0 
1 -13 -28 0 
1 -53 -144 0 
1 5 -137 0 
1 148 -9 0 
1 93 -126 0 
1 54 -87 0 
1 -143 -125 0 
1 42 54 0 
1 -178 86 0 
1 29 121 0 
1 92 81 0 
1 76 27 0 
1 98 -88 0 
1 1 -156 0 
1 98 47 0 
1 -126 -55 0 
1 136 42 0 
1 40 -16 0 
1 22 -120 0 
1 -66 98 0 
1 183 -168 0 
1 103 113 0 
1 160 47 0 
1 27 119 0 
1 17 -36 0 
1 -148 53 0 
1 -138 128 0 
1 46 13 0 
1 128 -185 0 
1 -48 164 0 
1 -163 60 0 
1 -124 -116 0 
1 -148 50 0 
1 108 -14 0 
1 3 -151 0 
1 -119 -86 0 
1 -113 -137 0 
1 84 -140 0 
1 177 136 0 
1 97 170 0 
1 -177 160 0 
1 76 165 0 
1 -61 140 0 
1 39 71 0 
1 80 -27 0 
1 -31 28 0 
1 91 46 0 
1 11 -40 0 
1 -37 -183 0 
1 36 7 0 
1 42 107 0 
1 -157 -58 0 
1 58 114 0 
1 -137 -147 0 
1 80 91 0 
1 -18 -29 0 
1 10 -6 0 
1 -79 -148 0 
1 36 -179 0 
1 20 37 0 
1 -68 127 0 
1 97 -23 0 
1 109 -5 0 
1 76 -82 0 
1 -85 7 0 
1 -62 -99 0 
1 39 30 0 
1 156 120 0 
1 -55 97 0 
1 137 -177 0 
1 39 -116 0 
1 -43 153 0 
1 -145 67 0 
1 63 -119 0 
1 75 51 0 
1 48 53 0 
1 181 -75 0 
1 -87 -151 0 
1 155 97 0 
1 -171 30 0 
1 164 -65 0 
1 -141 -99 0 
1 -157 124 0 
1 -142 -121 0 
1 162 -93 0 
1 33 150 0 
1 126 182 0 
1 75 -46 0 
1 -17 -77 0 
1 -92 -153 0 
1 166 -119 0 
1 -9 -145 0 
1 -49 58 0 
1 160 82 0 
1 155 103 0 
1 -41 86 0 
1 8 -162 0 
1 107 133 0 
1 -163 -104 0 
1 141 93 0 
1 -80 -126 0 
1 160 -137 0 
1 -47 177 0 
1 -126 61 0 
1 -15 -170 0 
1 -114 110 0 
1 -183 85 0 
1 56 175 0 
1 40 49 0 
1 -163 -53 0 
1 20 -62 0 
1 118 -48 0 
1 -98 -168 0 
1 -167 170 0 
1 74 39 0 
1 88 -3 0 
1 83 -38 0 
1 -144 -160 0 
1 60 -62 0 
1 -184 -162 0 
1 78 177 0 
1 44 -73 0 
1 -76 72 0 
1 117 -140 0 
1 91 -18 0 
1 -154 -71 0 
1 -143 127 0 
1 -184 -98 0 
1 -183 -157 0 
1 -141 181 0 
1 -145 -130 0 
1 -83 -90 0 
1 12 54 0 
1 -111 -178 0 
1 144 -54 0 
1 34 136 0 
1 32 -153 0 
1 170 -43 0 
1 -99 146 0 
1 -19 170 0 
1 137 168 0 
1 -172 -86 0 
1 -88 -165 0 
1 -146 59 0 
1 -135 99 0 
1 3 -44 0 
1 16 80 0 
1 -176 19 0 
1 41 7 0 
1 -136 175 0 
1 147 -15 0 
1 168 35 0 
1 183 160 0 
1 37 -156 0 
1 -21 66 0 
1 161 -49 0 
1 -1 -44 0 
1 125 26 0 
1 109 20 0 
1 34 7 0 
1 28 158 0 
1 -140 -123 0 
1 86 -67 0 
1 151 61 0 
1 -40 -14 0 
1 156 138 0 
1 -127 72 0 
1 -131 -178 0 
1 74 149 0 
1 -120 -65 0 
1 -83 -182 0 
1 42 -88 0 
1 -184 -103 0 
1 4 -61 0 
1 -13 53 0 
1 50 -57 0 
1 -62 98 0 
1 14 136 0 
1 -111 -180 0 
1 -177 70 0 
1 93 118 0 
1 -99 23 0 
1 -2 8 0 
1 89 85 0 
1 67 70 0 
1 92 94 0 
1 61 60 0 
1 -113 60 0 
1 -179 -94 0 
1 1 -51 0 
1 166 182 0 
1 106 -121 0 
1 25 46 0 
1 -32 -97 0 
1 -82 32 0 
1 176 53 0 
1 -90 -101 0 
1 9 155 0 
1 -14 170 0 
1 37 -164 0 
1 -174 -93 0 
1 8 -75 0 
1 -116 124 0 
1 -117 -145 0 
1 28 168 0 
1 86 -142 0 
1 11 143 0 
1 -131 68 0 
1 -113 167 0 
1 -35 -116 0 
1 111 -106 0 
1 65 -61 0 
1 11 74 0 
1 -77 15 0 
1 -92 146 0 
1 60 -147 0 
1 88 182 0 
1 69 -51 0 
1 -90 -114 0 
1 -91 -23 0 
1 58 115 0 
1 4 -152 0 
1 -23 -161 0 
1 1 83 0 
1 21 -148 0 
1 164 -73 0 
1 -65 125 0 
1 119 102 0 
1 83 -182 0 
1 -66 91 0 
1 -5 141 0 
1 -35 184 0 
1 115 160 0 
1 -114 -28 0 
1 64 -24 0 
1 -100 15 0 
1 159 -58 0 
1 167 -176 0 
1 -181 127 0 
1 82 33 0 
1 129 -27 0 
1 65 -14 0 
1 -166 102 0 
1 -65 120 0 
1 46 21 0 
1 34 64 0 
1 7 -74 0 
1 117 -15 0 
1 23 1 0 
1 -158 114 0 
1 -172 145 0 
1 -172 49 0 
1 -57 175 0 
1 34 -3 0 
1 -24 176 0 
1 173 118 0 
1 46 184 0 
1 58 -10 0 
1 -36 -90 0 
1 -51 106 0 
1 -185 65 0 
1 -13 -73 0 
1 69 -93 0 
1 -100 101 0 
1 142 -28 0 
1 72 21 0 
1 -28 -135 0 
1 -96 114 0 
1 152 -154 0 
1 -100 51 0 
1 -63 -51 0 
1 -120 -40 0 
1 75 -98 0 
1 -125 -102 0 
1 119 50 0 
1 -10 107 0 
1 89 164 0 
1 -76 -32 0 
1 174 53 0 
1 -63 80 0 
1 -70 20 0 
1 7 92 0 
1 -152 175 0 
1 55 161 0 
1 -105 24 0 
1 -120 50 0 
1 72 -128 0 
1 28 -160 0 
1 -114 -21 0 
1 -13 53 0 
1 -171 88 0 
1 150 -38 0 
1 -97 -102 0 
1 68 -97 0 
1 128 -63 0 
1 149 78 0 
1 -117 80 0 
1 -123 -18 0 
1 -69 -130 0 
1 -116 143 0 
1 149 -10 0 
1 -9 -66 0 
1 159 -117 0 
1 -21 -53 0 
1 -132 -123 0 
1 81 2 0 
1 -155 177 0 
1 -3 -34 0 
1 89 99 0 
1 -116 157 0 
1 123 -142 0 
1 106 -114 0 
1 166 -76 0 
1 142 -65 0 
1 24 125 0 
1 79 -172 0 
1 -170 -178 0 
1 -118 -51 0 
1 86 -156 0 
1 107 155 0 
1 -56 93 0 
1 -178 95 0 
1 -44 75 0 
1 -34 -110 0 
1 1 139 0 
1 -85 -162 0 
1 38 -153 0 
1 -59 62 0 
1 -12 23 0 
1 90 77 0 
1 -66 -181 0 
1 105 -182 0 
1 88 -41 0 
1 66 -92 0 
1 17 -92 0 
1 24 129 0 
1 101 21 0 
1 -133 -112 0 
1 -18 -111 0 
1 128 57 0 
